beginners/solutions/Exercise3a.out.smt2
sat
(
; cardinality of U is 2
; rep: (as @U_0 U)
; rep: (as @U_1 U)
(define-fun f ((_arg_1 U)) U (ite (= (as @U_1 U) _arg_1) (as @U_0 U) (as @U_1 U)))
(define-fun x () U (as @U_1 U))
)
